10J3M/DAT/10J3MNNX-6.dat
10 3
23.6683 4.865
30.8343 5.5529
31.662 5.6269
24.3526 4.9348
28.458 5.3346
22.6012 4.7541
28.189 5.3093
19.5279 4.419
19.6484 4.4327
36.0231 6.0019
51.2312