10J3M/SOL/10J3MNNX-6.sol
solution status: optimal solution found
objective value:                     79.6568666666667
x#1#1                                               1 	(obj:0)
x#2#2                                               1 	(obj:0)
x#3#3                                               1 	(obj:0)
x#4#2                                               1 	(obj:0)
x#5#1                                               1 	(obj:0)
x#6#1                               0.129397621386806 	(obj:0)
x#6#3                               0.870602378613194 	(obj:0)
x#7#1                                               1 	(obj:0)
x#8#2                               0.138513351079407 	(obj:0)
x#8#3                               0.861486648920593 	(obj:0)
x#9#2                                               1 	(obj:0)
x#10#1                                              1 	(obj:0)
z                                    79.6568666666667 	(obj:1)
